c FILE: i160-235

c SOURCE: From steinlib

c DESCRIPTION: Steinlib instance with 160 nodes and 320 edges.

p edge 160 320
e 1 6
e 1 20
e 1 32
e 1 115
e 1 116
e 1 146
e 1 160
e 2 41
e 2 111
e 2 143
e 3 76
e 3 125
e 3 152
e 4 150
e 5 27
e 5 77
e 5 118
e 6 9
e 6 56
e 6 63
e 6 64
e 6 65
e 6 70
e 6 88
e 6 100
e 6 152
e 7 34
e 7 107
e 7 157
e 8 14
e 8 82
e 8 91
e 9 108
e 9 117
e 9 154
e 10 31
e 10 35
e 10 124
e 11 42
e 11 59
e 11 85
e 11 101
e 11 103
e 12 22
e 12 27
e 12 61
e 12 68
e 12 75
e 12 117
e 13 46
e 13 55
e 13 119
e 13 127
e 13 144
e 13 159
e 14 63
e 14 104
e 14 115
e 15 20
e 15 57
e 15 149
e 16 22
e 16 72
e 17 37
e 17 106
e 17 120
e 17 123
e 18 35
e 18 63
e 18 87
e 18 118
e 18 125
e 18 151
e 19 91
e 20 28
e 20 35
e 20 52
e 20 56
e 20 63
e 20 85
e 20 86
e 20 103
e 20 104
e 20 115
e 20 122
e 20 137
e 21 66
e 21 75
e 22 78
e 23 43
e 23 126
e 23 130
e 23 136
e 24 32
e 24 80
e 24 144
e 24 150
e 25 46
e 25 51
e 25 62
e 25 78
e 26 84
e 26 91
e 27 34
e 27 77
e 27 88
e 27 133
e 28 66
e 28 79
e 29 35
e 29 37
e 29 69
e 29 88
e 29 101
e 29 130
e 30 101
e 30 105
e 30 112
e 30 152
e 31 105
e 32 33
e 32 39
e 32 54
e 32 72
e 32 83
e 33 35
e 33 56
e 34 57
e 34 95
e 34 107
e 34 152
e 35 114
e 36 109
e 36 136
e 37 44
e 37 62
e 37 80
e 37 155
e 38 61
e 38 133
e 39 48
e 39 64
e 39 65
e 39 134
e 39 139
e 39 156
e 40 43
e 40 70
e 40 129
e 40 149
e 41 56
e 41 157
e 42 78
e 42 109
e 43 63
e 43 70
e 43 148
e 44 56
e 44 71
e 44 83
e 44 132
e 45 72
e 45 84
e 45 110
e 47 65
e 48 56
e 48 85
e 48 156
e 48 158
e 49 68
e 49 137
e 50 53
e 50 85
e 50 143
e 51 94
e 51 95
e 51 113
e 51 136
e 52 112
e 54 58
e 54 67
e 54 98
e 54 122
e 54 124
e 55 56
e 55 97
e 55 125
e 56 64
e 56 83
e 56 114
e 57 125
e 59 101
e 59 141
e 59 159
e 60 76
e 60 80
e 60 103
e 60 106
e 60 121
e 61 68
e 61 70
e 61 102
e 61 111
e 61 115
e 62 64
e 62 71
e 63 64
e 63 151
e 63 153
e 64 150
e 64 155
e 65 135
e 65 149
e 66 150
e 66 153
e 67 127
e 67 155
e 68 77
e 68 145
e 68 158
e 69 106
e 69 136
e 70 74
e 70 91
e 70 108
e 70 124
e 70 134
e 71 85
e 71 132
e 72 124
e 72 143
e 73 116
e 74 116
e 74 120
e 75 99
e 76 127
e 77 79
e 77 142
e 77 143
e 77 150
e 78 139
e 78 147
e 79 96
e 80 119
e 80 134
e 81 99
e 82 100
e 82 148
e 83 120
e 84 94
e 84 109
e 84 114
e 84 125
e 86 114
e 86 144
e 87 99
e 88 100
e 88 136
e 89 91
e 89 156
e 90 102
e 90 145
e 91 102
e 91 149
e 91 160
e 92 136
e 92 156
e 93 156
e 93 160
e 94 112
e 94 119
e 94 131
e 94 159
e 95 133
e 95 145
e 96 115
e 97 127
e 97 138
e 99 113
e 101 146
e 102 148
e 103 119
e 103 135
e 104 128
e 110 127
e 110 131
e 110 143
e 111 121
e 111 134
e 111 159
e 112 149
e 115 128
e 116 135
e 116 144
e 117 121
e 117 149
e 118 154
e 120 137
e 120 142
e 121 152
e 122 131
e 123 134
e 124 131
e 125 129
e 126 156
e 127 145
e 127 155
e 127 157
e 128 129
e 129 141
e 129 142
e 130 159
e 131 136
e 131 145
e 132 152
e 133 157
e 138 156
e 139 140
e 140 159
e 145 149
